100
120
100
99
99
98
97
94
94
94
94
93
93
92
91
91
91
90
90
89
88
87
87
87
85
84
83
83
82
82
82
82
79
78
78
77
74
74
74
74
72
72
71
71
70
68
67
67
66
66
64
63
63
62
61
61
60
60
59
59
58
56
53
52
52
52
52
52
52
52
51
51
50
49
49
48
47
46
46
45
45
45
43
41
40
40
39
38
38
38
37
37
35
35
33
33
32
31
30
30
30
30
